g3 0 1 0	# problem eg2 - Generated with AMPL Version 20120406 on 06/10/2012 - Mach-O 64-bit executable x86_64
 1000 0 1 0 0	# vars, constraints, objectives, ranges, eqns
 0 1	# nonlinear constraints, objectives
 0 0	# network constraints: nonlinear, linear
 0 1000 0	# nonlinear vars in constraints, objectives, both
 0 0 0 1	# linear network variables; functions; arith, flags
 0 0 0 0 0	# discrete variables: binary, integer, nonlinear (b,c,o)
 0 1000	# nonzeros in Jacobian, gradients
 0 0   # max name lengths: constraints, variables
 0 0 0 0 0	# common exprs: b,c,o,c1,o1
O0 0
o54
1000
o41
o1
o0
v0
o5
v0
n2
n1
o41
o1
o0
v0
o5
v1
n2
n1
o41
o1
o0
v0
o5
v2
n2
n1
o41
o1
o0
v0
o5
v3
n2
n1
o41
o1
o0
v0
o5
v4
n2
n1
o41
o1
o0
v0
o5
v5
n2
n1
o41
o1
o0
v0
o5
v6
n2
n1
o41
o1
o0
v0
o5
v7
n2
n1
o41
o1
o0
v0
o5
v8
n2
n1
o41
o1
o0
v0
o5
v9
n2
n1
o41
o1
o0
v0
o5
v10
n2
n1
o41
o1
o0
v0
o5
v11
n2
n1
o41
o1
o0
v0
o5
v12
n2
n1
o41
o1
o0
v0
o5
v13
n2
n1
o41
o1
o0
v0
o5
v14
n2
n1
o41
o1
o0
v0
o5
v15
n2
n1
o41
o1
o0
v0
o5
v16
n2
n1
o41
o1
o0
v0
o5
v17
n2
n1
o41
o1
o0
v0
o5
v18
n2
n1
o41
o1
o0
v0
o5
v19
n2
n1
o41
o1
o0
v0
o5
v20
n2
n1
o41
o1
o0
v0
o5
v21
n2
n1
o41
o1
o0
v0
o5
v22
n2
n1
o41
o1
o0
v0
o5
v23
n2
n1
o41
o1
o0
v0
o5
v24
n2
n1
o41
o1
o0
v0
o5
v25
n2
n1
o41
o1
o0
v0
o5
v26
n2
n1
o41
o1
o0
v0
o5
v27
n2
n1
o41
o1
o0
v0
o5
v28
n2
n1
o41
o1
o0
v0
o5
v29
n2
n1
o41
o1
o0
v0
o5
v30
n2
n1
o41
o1
o0
v0
o5
v31
n2
n1
o41
o1
o0
v0
o5
v32
n2
n1
o41
o1
o0
v0
o5
v33
n2
n1
o41
o1
o0
v0
o5
v34
n2
n1
o41
o1
o0
v0
o5
v35
n2
n1
o41
o1
o0
v0
o5
v36
n2
n1
o41
o1
o0
v0
o5
v37
n2
n1
o41
o1
o0
v0
o5
v38
n2
n1
o41
o1
o0
v0
o5
v39
n2
n1
o41
o1
o0
v0
o5
v40
n2
n1
o41
o1
o0
v0
o5
v41
n2
n1
o41
o1
o0
v0
o5
v42
n2
n1
o41
o1
o0
v0
o5
v43
n2
n1
o41
o1
o0
v0
o5
v44
n2
n1
o41
o1
o0
v0
o5
v45
n2
n1
o41
o1
o0
v0
o5
v46
n2
n1
o41
o1
o0
v0
o5
v47
n2
n1
o41
o1
o0
v0
o5
v48
n2
n1
o41
o1
o0
v0
o5
v49
n2
n1
o41
o1
o0
v0
o5
v50
n2
n1
o41
o1
o0
v0
o5
v51
n2
n1
o41
o1
o0
v0
o5
v52
n2
n1
o41
o1
o0
v0
o5
v53
n2
n1
o41
o1
o0
v0
o5
v54
n2
n1
o41
o1
o0
v0
o5
v55
n2
n1
o41
o1
o0
v0
o5
v56
n2
n1
o41
o1
o0
v0
o5
v57
n2
n1
o41
o1
o0
v0
o5
v58
n2
n1
o41
o1
o0
v0
o5
v59
n2
n1
o41
o1
o0
v0
o5
v60
n2
n1
o41
o1
o0
v0
o5
v61
n2
n1
o41
o1
o0
v0
o5
v62
n2
n1
o41
o1
o0
v0
o5
v63
n2
n1
o41
o1
o0
v0
o5
v64
n2
n1
o41
o1
o0
v0
o5
v65
n2
n1
o41
o1
o0
v0
o5
v66
n2
n1
o41
o1
o0
v0
o5
v67
n2
n1
o41
o1
o0
v0
o5
v68
n2
n1
o41
o1
o0
v0
o5
v69
n2
n1
o41
o1
o0
v0
o5
v70
n2
n1
o41
o1
o0
v0
o5
v71
n2
n1
o41
o1
o0
v0
o5
v72
n2
n1
o41
o1
o0
v0
o5
v73
n2
n1
o41
o1
o0
v0
o5
v74
n2
n1
o41
o1
o0
v0
o5
v75
n2
n1
o41
o1
o0
v0
o5
v76
n2
n1
o41
o1
o0
v0
o5
v77
n2
n1
o41
o1
o0
v0
o5
v78
n2
n1
o41
o1
o0
v0
o5
v79
n2
n1
o41
o1
o0
v0
o5
v80
n2
n1
o41
o1
o0
v0
o5
v81
n2
n1
o41
o1
o0
v0
o5
v82
n2
n1
o41
o1
o0
v0
o5
v83
n2
n1
o41
o1
o0
v0
o5
v84
n2
n1
o41
o1
o0
v0
o5
v85
n2
n1
o41
o1
o0
v0
o5
v86
n2
n1
o41
o1
o0
v0
o5
v87
n2
n1
o41
o1
o0
v0
o5
v88
n2
n1
o41
o1
o0
v0
o5
v89
n2
n1
o41
o1
o0
v0
o5
v90
n2
n1
o41
o1
o0
v0
o5
v91
n2
n1
o41
o1
o0
v0
o5
v92
n2
n1
o41
o1
o0
v0
o5
v93
n2
n1
o41
o1
o0
v0
o5
v94
n2
n1
o41
o1
o0
v0
o5
v95
n2
n1
o41
o1
o0
v0
o5
v96
n2
n1
o41
o1
o0
v0
o5
v97
n2
n1
o41
o1
o0
v0
o5
v98
n2
n1
o41
o1
o0
v0
o5
v99
n2
n1
o41
o1
o0
v0
o5
v100
n2
n1
o41
o1
o0
v0
o5
v101
n2
n1
o41
o1
o0
v0
o5
v102
n2
n1
o41
o1
o0
v0
o5
v103
n2
n1
o41
o1
o0
v0
o5
v104
n2
n1
o41
o1
o0
v0
o5
v105
n2
n1
o41
o1
o0
v0
o5
v106
n2
n1
o41
o1
o0
v0
o5
v107
n2
n1
o41
o1
o0
v0
o5
v108
n2
n1
o41
o1
o0
v0
o5
v109
n2
n1
o41
o1
o0
v0
o5
v110
n2
n1
o41
o1
o0
v0
o5
v111
n2
n1
o41
o1
o0
v0
o5
v112
n2
n1
o41
o1
o0
v0
o5
v113
n2
n1
o41
o1
o0
v0
o5
v114
n2
n1
o41
o1
o0
v0
o5
v115
n2
n1
o41
o1
o0
v0
o5
v116
n2
n1
o41
o1
o0
v0
o5
v117
n2
n1
o41
o1
o0
v0
o5
v118
n2
n1
o41
o1
o0
v0
o5
v119
n2
n1
o41
o1
o0
v0
o5
v120
n2
n1
o41
o1
o0
v0
o5
v121
n2
n1
o41
o1
o0
v0
o5
v122
n2
n1
o41
o1
o0
v0
o5
v123
n2
n1
o41
o1
o0
v0
o5
v124
n2
n1
o41
o1
o0
v0
o5
v125
n2
n1
o41
o1
o0
v0
o5
v126
n2
n1
o41
o1
o0
v0
o5
v127
n2
n1
o41
o1
o0
v0
o5
v128
n2
n1
o41
o1
o0
v0
o5
v129
n2
n1
o41
o1
o0
v0
o5
v130
n2
n1
o41
o1
o0
v0
o5
v131
n2
n1
o41
o1
o0
v0
o5
v132
n2
n1
o41
o1
o0
v0
o5
v133
n2
n1
o41
o1
o0
v0
o5
v134
n2
n1
o41
o1
o0
v0
o5
v135
n2
n1
o41
o1
o0
v0
o5
v136
n2
n1
o41
o1
o0
v0
o5
v137
n2
n1
o41
o1
o0
v0
o5
v138
n2
n1
o41
o1
o0
v0
o5
v139
n2
n1
o41
o1
o0
v0
o5
v140
n2
n1
o41
o1
o0
v0
o5
v141
n2
n1
o41
o1
o0
v0
o5
v142
n2
n1
o41
o1
o0
v0
o5
v143
n2
n1
o41
o1
o0
v0
o5
v144
n2
n1
o41
o1
o0
v0
o5
v145
n2
n1
o41
o1
o0
v0
o5
v146
n2
n1
o41
o1
o0
v0
o5
v147
n2
n1
o41
o1
o0
v0
o5
v148
n2
n1
o41
o1
o0
v0
o5
v149
n2
n1
o41
o1
o0
v0
o5
v150
n2
n1
o41
o1
o0
v0
o5
v151
n2
n1
o41
o1
o0
v0
o5
v152
n2
n1
o41
o1
o0
v0
o5
v153
n2
n1
o41
o1
o0
v0
o5
v154
n2
n1
o41
o1
o0
v0
o5
v155
n2
n1
o41
o1
o0
v0
o5
v156
n2
n1
o41
o1
o0
v0
o5
v157
n2
n1
o41
o1
o0
v0
o5
v158
n2
n1
o41
o1
o0
v0
o5
v159
n2
n1
o41
o1
o0
v0
o5
v160
n2
n1
o41
o1
o0
v0
o5
v161
n2
n1
o41
o1
o0
v0
o5
v162
n2
n1
o41
o1
o0
v0
o5
v163
n2
n1
o41
o1
o0
v0
o5
v164
n2
n1
o41
o1
o0
v0
o5
v165
n2
n1
o41
o1
o0
v0
o5
v166
n2
n1
o41
o1
o0
v0
o5
v167
n2
n1
o41
o1
o0
v0
o5
v168
n2
n1
o41
o1
o0
v0
o5
v169
n2
n1
o41
o1
o0
v0
o5
v170
n2
n1
o41
o1
o0
v0
o5
v171
n2
n1
o41
o1
o0
v0
o5
v172
n2
n1
o41
o1
o0
v0
o5
v173
n2
n1
o41
o1
o0
v0
o5
v174
n2
n1
o41
o1
o0
v0
o5
v175
n2
n1
o41
o1
o0
v0
o5
v176
n2
n1
o41
o1
o0
v0
o5
v177
n2
n1
o41
o1
o0
v0
o5
v178
n2
n1
o41
o1
o0
v0
o5
v179
n2
n1
o41
o1
o0
v0
o5
v180
n2
n1
o41
o1
o0
v0
o5
v181
n2
n1
o41
o1
o0
v0
o5
v182
n2
n1
o41
o1
o0
v0
o5
v183
n2
n1
o41
o1
o0
v0
o5
v184
n2
n1
o41
o1
o0
v0
o5
v185
n2
n1
o41
o1
o0
v0
o5
v186
n2
n1
o41
o1
o0
v0
o5
v187
n2
n1
o41
o1
o0
v0
o5
v188
n2
n1
o41
o1
o0
v0
o5
v189
n2
n1
o41
o1
o0
v0
o5
v190
n2
n1
o41
o1
o0
v0
o5
v191
n2
n1
o41
o1
o0
v0
o5
v192
n2
n1
o41
o1
o0
v0
o5
v193
n2
n1
o41
o1
o0
v0
o5
v194
n2
n1
o41
o1
o0
v0
o5
v195
n2
n1
o41
o1
o0
v0
o5
v196
n2
n1
o41
o1
o0
v0
o5
v197
n2
n1
o41
o1
o0
v0
o5
v198
n2
n1
o41
o1
o0
v0
o5
v199
n2
n1
o41
o1
o0
v0
o5
v200
n2
n1
o41
o1
o0
v0
o5
v201
n2
n1
o41
o1
o0
v0
o5
v202
n2
n1
o41
o1
o0
v0
o5
v203
n2
n1
o41
o1
o0
v0
o5
v204
n2
n1
o41
o1
o0
v0
o5
v205
n2
n1
o41
o1
o0
v0
o5
v206
n2
n1
o41
o1
o0
v0
o5
v207
n2
n1
o41
o1
o0
v0
o5
v208
n2
n1
o41
o1
o0
v0
o5
v209
n2
n1
o41
o1
o0
v0
o5
v210
n2
n1
o41
o1
o0
v0
o5
v211
n2
n1
o41
o1
o0
v0
o5
v212
n2
n1
o41
o1
o0
v0
o5
v213
n2
n1
o41
o1
o0
v0
o5
v214
n2
n1
o41
o1
o0
v0
o5
v215
n2
n1
o41
o1
o0
v0
o5
v216
n2
n1
o41
o1
o0
v0
o5
v217
n2
n1
o41
o1
o0
v0
o5
v218
n2
n1
o41
o1
o0
v0
o5
v219
n2
n1
o41
o1
o0
v0
o5
v220
n2
n1
o41
o1
o0
v0
o5
v221
n2
n1
o41
o1
o0
v0
o5
v222
n2
n1
o41
o1
o0
v0
o5
v223
n2
n1
o41
o1
o0
v0
o5
v224
n2
n1
o41
o1
o0
v0
o5
v225
n2
n1
o41
o1
o0
v0
o5
v226
n2
n1
o41
o1
o0
v0
o5
v227
n2
n1
o41
o1
o0
v0
o5
v228
n2
n1
o41
o1
o0
v0
o5
v229
n2
n1
o41
o1
o0
v0
o5
v230
n2
n1
o41
o1
o0
v0
o5
v231
n2
n1
o41
o1
o0
v0
o5
v232
n2
n1
o41
o1
o0
v0
o5
v233
n2
n1
o41
o1
o0
v0
o5
v234
n2
n1
o41
o1
o0
v0
o5
v235
n2
n1
o41
o1
o0
v0
o5
v236
n2
n1
o41
o1
o0
v0
o5
v237
n2
n1
o41
o1
o0
v0
o5
v238
n2
n1
o41
o1
o0
v0
o5
v239
n2
n1
o41
o1
o0
v0
o5
v240
n2
n1
o41
o1
o0
v0
o5
v241
n2
n1
o41
o1
o0
v0
o5
v242
n2
n1
o41
o1
o0
v0
o5
v243
n2
n1
o41
o1
o0
v0
o5
v244
n2
n1
o41
o1
o0
v0
o5
v245
n2
n1
o41
o1
o0
v0
o5
v246
n2
n1
o41
o1
o0
v0
o5
v247
n2
n1
o41
o1
o0
v0
o5
v248
n2
n1
o41
o1
o0
v0
o5
v249
n2
n1
o41
o1
o0
v0
o5
v250
n2
n1
o41
o1
o0
v0
o5
v251
n2
n1
o41
o1
o0
v0
o5
v252
n2
n1
o41
o1
o0
v0
o5
v253
n2
n1
o41
o1
o0
v0
o5
v254
n2
n1
o41
o1
o0
v0
o5
v255
n2
n1
o41
o1
o0
v0
o5
v256
n2
n1
o41
o1
o0
v0
o5
v257
n2
n1
o41
o1
o0
v0
o5
v258
n2
n1
o41
o1
o0
v0
o5
v259
n2
n1
o41
o1
o0
v0
o5
v260
n2
n1
o41
o1
o0
v0
o5
v261
n2
n1
o41
o1
o0
v0
o5
v262
n2
n1
o41
o1
o0
v0
o5
v263
n2
n1
o41
o1
o0
v0
o5
v264
n2
n1
o41
o1
o0
v0
o5
v265
n2
n1
o41
o1
o0
v0
o5
v266
n2
n1
o41
o1
o0
v0
o5
v267
n2
n1
o41
o1
o0
v0
o5
v268
n2
n1
o41
o1
o0
v0
o5
v269
n2
n1
o41
o1
o0
v0
o5
v270
n2
n1
o41
o1
o0
v0
o5
v271
n2
n1
o41
o1
o0
v0
o5
v272
n2
n1
o41
o1
o0
v0
o5
v273
n2
n1
o41
o1
o0
v0
o5
v274
n2
n1
o41
o1
o0
v0
o5
v275
n2
n1
o41
o1
o0
v0
o5
v276
n2
n1
o41
o1
o0
v0
o5
v277
n2
n1
o41
o1
o0
v0
o5
v278
n2
n1
o41
o1
o0
v0
o5
v279
n2
n1
o41
o1
o0
v0
o5
v280
n2
n1
o41
o1
o0
v0
o5
v281
n2
n1
o41
o1
o0
v0
o5
v282
n2
n1
o41
o1
o0
v0
o5
v283
n2
n1
o41
o1
o0
v0
o5
v284
n2
n1
o41
o1
o0
v0
o5
v285
n2
n1
o41
o1
o0
v0
o5
v286
n2
n1
o41
o1
o0
v0
o5
v287
n2
n1
o41
o1
o0
v0
o5
v288
n2
n1
o41
o1
o0
v0
o5
v289
n2
n1
o41
o1
o0
v0
o5
v290
n2
n1
o41
o1
o0
v0
o5
v291
n2
n1
o41
o1
o0
v0
o5
v292
n2
n1
o41
o1
o0
v0
o5
v293
n2
n1
o41
o1
o0
v0
o5
v294
n2
n1
o41
o1
o0
v0
o5
v295
n2
n1
o41
o1
o0
v0
o5
v296
n2
n1
o41
o1
o0
v0
o5
v297
n2
n1
o41
o1
o0
v0
o5
v298
n2
n1
o41
o1
o0
v0
o5
v299
n2
n1
o41
o1
o0
v0
o5
v300
n2
n1
o41
o1
o0
v0
o5
v301
n2
n1
o41
o1
o0
v0
o5
v302
n2
n1
o41
o1
o0
v0
o5
v303
n2
n1
o41
o1
o0
v0
o5
v304
n2
n1
o41
o1
o0
v0
o5
v305
n2
n1
o41
o1
o0
v0
o5
v306
n2
n1
o41
o1
o0
v0
o5
v307
n2
n1
o41
o1
o0
v0
o5
v308
n2
n1
o41
o1
o0
v0
o5
v309
n2
n1
o41
o1
o0
v0
o5
v310
n2
n1
o41
o1
o0
v0
o5
v311
n2
n1
o41
o1
o0
v0
o5
v312
n2
n1
o41
o1
o0
v0
o5
v313
n2
n1
o41
o1
o0
v0
o5
v314
n2
n1
o41
o1
o0
v0
o5
v315
n2
n1
o41
o1
o0
v0
o5
v316
n2
n1
o41
o1
o0
v0
o5
v317
n2
n1
o41
o1
o0
v0
o5
v318
n2
n1
o41
o1
o0
v0
o5
v319
n2
n1
o41
o1
o0
v0
o5
v320
n2
n1
o41
o1
o0
v0
o5
v321
n2
n1
o41
o1
o0
v0
o5
v322
n2
n1
o41
o1
o0
v0
o5
v323
n2
n1
o41
o1
o0
v0
o5
v324
n2
n1
o41
o1
o0
v0
o5
v325
n2
n1
o41
o1
o0
v0
o5
v326
n2
n1
o41
o1
o0
v0
o5
v327
n2
n1
o41
o1
o0
v0
o5
v328
n2
n1
o41
o1
o0
v0
o5
v329
n2
n1
o41
o1
o0
v0
o5
v330
n2
n1
o41
o1
o0
v0
o5
v331
n2
n1
o41
o1
o0
v0
o5
v332
n2
n1
o41
o1
o0
v0
o5
v333
n2
n1
o41
o1
o0
v0
o5
v334
n2
n1
o41
o1
o0
v0
o5
v335
n2
n1
o41
o1
o0
v0
o5
v336
n2
n1
o41
o1
o0
v0
o5
v337
n2
n1
o41
o1
o0
v0
o5
v338
n2
n1
o41
o1
o0
v0
o5
v339
n2
n1
o41
o1
o0
v0
o5
v340
n2
n1
o41
o1
o0
v0
o5
v341
n2
n1
o41
o1
o0
v0
o5
v342
n2
n1
o41
o1
o0
v0
o5
v343
n2
n1
o41
o1
o0
v0
o5
v344
n2
n1
o41
o1
o0
v0
o5
v345
n2
n1
o41
o1
o0
v0
o5
v346
n2
n1
o41
o1
o0
v0
o5
v347
n2
n1
o41
o1
o0
v0
o5
v348
n2
n1
o41
o1
o0
v0
o5
v349
n2
n1
o41
o1
o0
v0
o5
v350
n2
n1
o41
o1
o0
v0
o5
v351
n2
n1
o41
o1
o0
v0
o5
v352
n2
n1
o41
o1
o0
v0
o5
v353
n2
n1
o41
o1
o0
v0
o5
v354
n2
n1
o41
o1
o0
v0
o5
v355
n2
n1
o41
o1
o0
v0
o5
v356
n2
n1
o41
o1
o0
v0
o5
v357
n2
n1
o41
o1
o0
v0
o5
v358
n2
n1
o41
o1
o0
v0
o5
v359
n2
n1
o41
o1
o0
v0
o5
v360
n2
n1
o41
o1
o0
v0
o5
v361
n2
n1
o41
o1
o0
v0
o5
v362
n2
n1
o41
o1
o0
v0
o5
v363
n2
n1
o41
o1
o0
v0
o5
v364
n2
n1
o41
o1
o0
v0
o5
v365
n2
n1
o41
o1
o0
v0
o5
v366
n2
n1
o41
o1
o0
v0
o5
v367
n2
n1
o41
o1
o0
v0
o5
v368
n2
n1
o41
o1
o0
v0
o5
v369
n2
n1
o41
o1
o0
v0
o5
v370
n2
n1
o41
o1
o0
v0
o5
v371
n2
n1
o41
o1
o0
v0
o5
v372
n2
n1
o41
o1
o0
v0
o5
v373
n2
n1
o41
o1
o0
v0
o5
v374
n2
n1
o41
o1
o0
v0
o5
v375
n2
n1
o41
o1
o0
v0
o5
v376
n2
n1
o41
o1
o0
v0
o5
v377
n2
n1
o41
o1
o0
v0
o5
v378
n2
n1
o41
o1
o0
v0
o5
v379
n2
n1
o41
o1
o0
v0
o5
v380
n2
n1
o41
o1
o0
v0
o5
v381
n2
n1
o41
o1
o0
v0
o5
v382
n2
n1
o41
o1
o0
v0
o5
v383
n2
n1
o41
o1
o0
v0
o5
v384
n2
n1
o41
o1
o0
v0
o5
v385
n2
n1
o41
o1
o0
v0
o5
v386
n2
n1
o41
o1
o0
v0
o5
v387
n2
n1
o41
o1
o0
v0
o5
v388
n2
n1
o41
o1
o0
v0
o5
v389
n2
n1
o41
o1
o0
v0
o5
v390
n2
n1
o41
o1
o0
v0
o5
v391
n2
n1
o41
o1
o0
v0
o5
v392
n2
n1
o41
o1
o0
v0
o5
v393
n2
n1
o41
o1
o0
v0
o5
v394
n2
n1
o41
o1
o0
v0
o5
v395
n2
n1
o41
o1
o0
v0
o5
v396
n2
n1
o41
o1
o0
v0
o5
v397
n2
n1
o41
o1
o0
v0
o5
v398
n2
n1
o41
o1
o0
v0
o5
v399
n2
n1
o41
o1
o0
v0
o5
v400
n2
n1
o41
o1
o0
v0
o5
v401
n2
n1
o41
o1
o0
v0
o5
v402
n2
n1
o41
o1
o0
v0
o5
v403
n2
n1
o41
o1
o0
v0
o5
v404
n2
n1
o41
o1
o0
v0
o5
v405
n2
n1
o41
o1
o0
v0
o5
v406
n2
n1
o41
o1
o0
v0
o5
v407
n2
n1
o41
o1
o0
v0
o5
v408
n2
n1
o41
o1
o0
v0
o5
v409
n2
n1
o41
o1
o0
v0
o5
v410
n2
n1
o41
o1
o0
v0
o5
v411
n2
n1
o41
o1
o0
v0
o5
v412
n2
n1
o41
o1
o0
v0
o5
v413
n2
n1
o41
o1
o0
v0
o5
v414
n2
n1
o41
o1
o0
v0
o5
v415
n2
n1
o41
o1
o0
v0
o5
v416
n2
n1
o41
o1
o0
v0
o5
v417
n2
n1
o41
o1
o0
v0
o5
v418
n2
n1
o41
o1
o0
v0
o5
v419
n2
n1
o41
o1
o0
v0
o5
v420
n2
n1
o41
o1
o0
v0
o5
v421
n2
n1
o41
o1
o0
v0
o5
v422
n2
n1
o41
o1
o0
v0
o5
v423
n2
n1
o41
o1
o0
v0
o5
v424
n2
n1
o41
o1
o0
v0
o5
v425
n2
n1
o41
o1
o0
v0
o5
v426
n2
n1
o41
o1
o0
v0
o5
v427
n2
n1
o41
o1
o0
v0
o5
v428
n2
n1
o41
o1
o0
v0
o5
v429
n2
n1
o41
o1
o0
v0
o5
v430
n2
n1
o41
o1
o0
v0
o5
v431
n2
n1
o41
o1
o0
v0
o5
v432
n2
n1
o41
o1
o0
v0
o5
v433
n2
n1
o41
o1
o0
v0
o5
v434
n2
n1
o41
o1
o0
v0
o5
v435
n2
n1
o41
o1
o0
v0
o5
v436
n2
n1
o41
o1
o0
v0
o5
v437
n2
n1
o41
o1
o0
v0
o5
v438
n2
n1
o41
o1
o0
v0
o5
v439
n2
n1
o41
o1
o0
v0
o5
v440
n2
n1
o41
o1
o0
v0
o5
v441
n2
n1
o41
o1
o0
v0
o5
v442
n2
n1
o41
o1
o0
v0
o5
v443
n2
n1
o41
o1
o0
v0
o5
v444
n2
n1
o41
o1
o0
v0
o5
v445
n2
n1
o41
o1
o0
v0
o5
v446
n2
n1
o41
o1
o0
v0
o5
v447
n2
n1
o41
o1
o0
v0
o5
v448
n2
n1
o41
o1
o0
v0
o5
v449
n2
n1
o41
o1
o0
v0
o5
v450
n2
n1
o41
o1
o0
v0
o5
v451
n2
n1
o41
o1
o0
v0
o5
v452
n2
n1
o41
o1
o0
v0
o5
v453
n2
n1
o41
o1
o0
v0
o5
v454
n2
n1
o41
o1
o0
v0
o5
v455
n2
n1
o41
o1
o0
v0
o5
v456
n2
n1
o41
o1
o0
v0
o5
v457
n2
n1
o41
o1
o0
v0
o5
v458
n2
n1
o41
o1
o0
v0
o5
v459
n2
n1
o41
o1
o0
v0
o5
v460
n2
n1
o41
o1
o0
v0
o5
v461
n2
n1
o41
o1
o0
v0
o5
v462
n2
n1
o41
o1
o0
v0
o5
v463
n2
n1
o41
o1
o0
v0
o5
v464
n2
n1
o41
o1
o0
v0
o5
v465
n2
n1
o41
o1
o0
v0
o5
v466
n2
n1
o41
o1
o0
v0
o5
v467
n2
n1
o41
o1
o0
v0
o5
v468
n2
n1
o41
o1
o0
v0
o5
v469
n2
n1
o41
o1
o0
v0
o5
v470
n2
n1
o41
o1
o0
v0
o5
v471
n2
n1
o41
o1
o0
v0
o5
v472
n2
n1
o41
o1
o0
v0
o5
v473
n2
n1
o41
o1
o0
v0
o5
v474
n2
n1
o41
o1
o0
v0
o5
v475
n2
n1
o41
o1
o0
v0
o5
v476
n2
n1
o41
o1
o0
v0
o5
v477
n2
n1
o41
o1
o0
v0
o5
v478
n2
n1
o41
o1
o0
v0
o5
v479
n2
n1
o41
o1
o0
v0
o5
v480
n2
n1
o41
o1
o0
v0
o5
v481
n2
n1
o41
o1
o0
v0
o5
v482
n2
n1
o41
o1
o0
v0
o5
v483
n2
n1
o41
o1
o0
v0
o5
v484
n2
n1
o41
o1
o0
v0
o5
v485
n2
n1
o41
o1
o0
v0
o5
v486
n2
n1
o41
o1
o0
v0
o5
v487
n2
n1
o41
o1
o0
v0
o5
v488
n2
n1
o41
o1
o0
v0
o5
v489
n2
n1
o41
o1
o0
v0
o5
v490
n2
n1
o41
o1
o0
v0
o5
v491
n2
n1
o41
o1
o0
v0
o5
v492
n2
n1
o41
o1
o0
v0
o5
v493
n2
n1
o41
o1
o0
v0
o5
v494
n2
n1
o41
o1
o0
v0
o5
v495
n2
n1
o41
o1
o0
v0
o5
v496
n2
n1
o41
o1
o0
v0
o5
v497
n2
n1
o41
o1
o0
v0
o5
v498
n2
n1
o41
o1
o0
v0
o5
v499
n2
n1
o41
o1
o0
v0
o5
v500
n2
n1
o41
o1
o0
v0
o5
v501
n2
n1
o41
o1
o0
v0
o5
v502
n2
n1
o41
o1
o0
v0
o5
v503
n2
n1
o41
o1
o0
v0
o5
v504
n2
n1
o41
o1
o0
v0
o5
v505
n2
n1
o41
o1
o0
v0
o5
v506
n2
n1
o41
o1
o0
v0
o5
v507
n2
n1
o41
o1
o0
v0
o5
v508
n2
n1
o41
o1
o0
v0
o5
v509
n2
n1
o41
o1
o0
v0
o5
v510
n2
n1
o41
o1
o0
v0
o5
v511
n2
n1
o41
o1
o0
v0
o5
v512
n2
n1
o41
o1
o0
v0
o5
v513
n2
n1
o41
o1
o0
v0
o5
v514
n2
n1
o41
o1
o0
v0
o5
v515
n2
n1
o41
o1
o0
v0
o5
v516
n2
n1
o41
o1
o0
v0
o5
v517
n2
n1
o41
o1
o0
v0
o5
v518
n2
n1
o41
o1
o0
v0
o5
v519
n2
n1
o41
o1
o0
v0
o5
v520
n2
n1
o41
o1
o0
v0
o5
v521
n2
n1
o41
o1
o0
v0
o5
v522
n2
n1
o41
o1
o0
v0
o5
v523
n2
n1
o41
o1
o0
v0
o5
v524
n2
n1
o41
o1
o0
v0
o5
v525
n2
n1
o41
o1
o0
v0
o5
v526
n2
n1
o41
o1
o0
v0
o5
v527
n2
n1
o41
o1
o0
v0
o5
v528
n2
n1
o41
o1
o0
v0
o5
v529
n2
n1
o41
o1
o0
v0
o5
v530
n2
n1
o41
o1
o0
v0
o5
v531
n2
n1
o41
o1
o0
v0
o5
v532
n2
n1
o41
o1
o0
v0
o5
v533
n2
n1
o41
o1
o0
v0
o5
v534
n2
n1
o41
o1
o0
v0
o5
v535
n2
n1
o41
o1
o0
v0
o5
v536
n2
n1
o41
o1
o0
v0
o5
v537
n2
n1
o41
o1
o0
v0
o5
v538
n2
n1
o41
o1
o0
v0
o5
v539
n2
n1
o41
o1
o0
v0
o5
v540
n2
n1
o41
o1
o0
v0
o5
v541
n2
n1
o41
o1
o0
v0
o5
v542
n2
n1
o41
o1
o0
v0
o5
v543
n2
n1
o41
o1
o0
v0
o5
v544
n2
n1
o41
o1
o0
v0
o5
v545
n2
n1
o41
o1
o0
v0
o5
v546
n2
n1
o41
o1
o0
v0
o5
v547
n2
n1
o41
o1
o0
v0
o5
v548
n2
n1
o41
o1
o0
v0
o5
v549
n2
n1
o41
o1
o0
v0
o5
v550
n2
n1
o41
o1
o0
v0
o5
v551
n2
n1
o41
o1
o0
v0
o5
v552
n2
n1
o41
o1
o0
v0
o5
v553
n2
n1
o41
o1
o0
v0
o5
v554
n2
n1
o41
o1
o0
v0
o5
v555
n2
n1
o41
o1
o0
v0
o5
v556
n2
n1
o41
o1
o0
v0
o5
v557
n2
n1
o41
o1
o0
v0
o5
v558
n2
n1
o41
o1
o0
v0
o5
v559
n2
n1
o41
o1
o0
v0
o5
v560
n2
n1
o41
o1
o0
v0
o5
v561
n2
n1
o41
o1
o0
v0
o5
v562
n2
n1
o41
o1
o0
v0
o5
v563
n2
n1
o41
o1
o0
v0
o5
v564
n2
n1
o41
o1
o0
v0
o5
v565
n2
n1
o41
o1
o0
v0
o5
v566
n2
n1
o41
o1
o0
v0
o5
v567
n2
n1
o41
o1
o0
v0
o5
v568
n2
n1
o41
o1
o0
v0
o5
v569
n2
n1
o41
o1
o0
v0
o5
v570
n2
n1
o41
o1
o0
v0
o5
v571
n2
n1
o41
o1
o0
v0
o5
v572
n2
n1
o41
o1
o0
v0
o5
v573
n2
n1
o41
o1
o0
v0
o5
v574
n2
n1
o41
o1
o0
v0
o5
v575
n2
n1
o41
o1
o0
v0
o5
v576
n2
n1
o41
o1
o0
v0
o5
v577
n2
n1
o41
o1
o0
v0
o5
v578
n2
n1
o41
o1
o0
v0
o5
v579
n2
n1
o41
o1
o0
v0
o5
v580
n2
n1
o41
o1
o0
v0
o5
v581
n2
n1
o41
o1
o0
v0
o5
v582
n2
n1
o41
o1
o0
v0
o5
v583
n2
n1
o41
o1
o0
v0
o5
v584
n2
n1
o41
o1
o0
v0
o5
v585
n2
n1
o41
o1
o0
v0
o5
v586
n2
n1
o41
o1
o0
v0
o5
v587
n2
n1
o41
o1
o0
v0
o5
v588
n2
n1
o41
o1
o0
v0
o5
v589
n2
n1
o41
o1
o0
v0
o5
v590
n2
n1
o41
o1
o0
v0
o5
v591
n2
n1
o41
o1
o0
v0
o5
v592
n2
n1
o41
o1
o0
v0
o5
v593
n2
n1
o41
o1
o0
v0
o5
v594
n2
n1
o41
o1
o0
v0
o5
v595
n2
n1
o41
o1
o0
v0
o5
v596
n2
n1
o41
o1
o0
v0
o5
v597
n2
n1
o41
o1
o0
v0
o5
v598
n2
n1
o41
o1
o0
v0
o5
v599
n2
n1
o41
o1
o0
v0
o5
v600
n2
n1
o41
o1
o0
v0
o5
v601
n2
n1
o41
o1
o0
v0
o5
v602
n2
n1
o41
o1
o0
v0
o5
v603
n2
n1
o41
o1
o0
v0
o5
v604
n2
n1
o41
o1
o0
v0
o5
v605
n2
n1
o41
o1
o0
v0
o5
v606
n2
n1
o41
o1
o0
v0
o5
v607
n2
n1
o41
o1
o0
v0
o5
v608
n2
n1
o41
o1
o0
v0
o5
v609
n2
n1
o41
o1
o0
v0
o5
v610
n2
n1
o41
o1
o0
v0
o5
v611
n2
n1
o41
o1
o0
v0
o5
v612
n2
n1
o41
o1
o0
v0
o5
v613
n2
n1
o41
o1
o0
v0
o5
v614
n2
n1
o41
o1
o0
v0
o5
v615
n2
n1
o41
o1
o0
v0
o5
v616
n2
n1
o41
o1
o0
v0
o5
v617
n2
n1
o41
o1
o0
v0
o5
v618
n2
n1
o41
o1
o0
v0
o5
v619
n2
n1
o41
o1
o0
v0
o5
v620
n2
n1
o41
o1
o0
v0
o5
v621
n2
n1
o41
o1
o0
v0
o5
v622
n2
n1
o41
o1
o0
v0
o5
v623
n2
n1
o41
o1
o0
v0
o5
v624
n2
n1
o41
o1
o0
v0
o5
v625
n2
n1
o41
o1
o0
v0
o5
v626
n2
n1
o41
o1
o0
v0
o5
v627
n2
n1
o41
o1
o0
v0
o5
v628
n2
n1
o41
o1
o0
v0
o5
v629
n2
n1
o41
o1
o0
v0
o5
v630
n2
n1
o41
o1
o0
v0
o5
v631
n2
n1
o41
o1
o0
v0
o5
v632
n2
n1
o41
o1
o0
v0
o5
v633
n2
n1
o41
o1
o0
v0
o5
v634
n2
n1
o41
o1
o0
v0
o5
v635
n2
n1
o41
o1
o0
v0
o5
v636
n2
n1
o41
o1
o0
v0
o5
v637
n2
n1
o41
o1
o0
v0
o5
v638
n2
n1
o41
o1
o0
v0
o5
v639
n2
n1
o41
o1
o0
v0
o5
v640
n2
n1
o41
o1
o0
v0
o5
v641
n2
n1
o41
o1
o0
v0
o5
v642
n2
n1
o41
o1
o0
v0
o5
v643
n2
n1
o41
o1
o0
v0
o5
v644
n2
n1
o41
o1
o0
v0
o5
v645
n2
n1
o41
o1
o0
v0
o5
v646
n2
n1
o41
o1
o0
v0
o5
v647
n2
n1
o41
o1
o0
v0
o5
v648
n2
n1
o41
o1
o0
v0
o5
v649
n2
n1
o41
o1
o0
v0
o5
v650
n2
n1
o41
o1
o0
v0
o5
v651
n2
n1
o41
o1
o0
v0
o5
v652
n2
n1
o41
o1
o0
v0
o5
v653
n2
n1
o41
o1
o0
v0
o5
v654
n2
n1
o41
o1
o0
v0
o5
v655
n2
n1
o41
o1
o0
v0
o5
v656
n2
n1
o41
o1
o0
v0
o5
v657
n2
n1
o41
o1
o0
v0
o5
v658
n2
n1
o41
o1
o0
v0
o5
v659
n2
n1
o41
o1
o0
v0
o5
v660
n2
n1
o41
o1
o0
v0
o5
v661
n2
n1
o41
o1
o0
v0
o5
v662
n2
n1
o41
o1
o0
v0
o5
v663
n2
n1
o41
o1
o0
v0
o5
v664
n2
n1
o41
o1
o0
v0
o5
v665
n2
n1
o41
o1
o0
v0
o5
v666
n2
n1
o41
o1
o0
v0
o5
v667
n2
n1
o41
o1
o0
v0
o5
v668
n2
n1
o41
o1
o0
v0
o5
v669
n2
n1
o41
o1
o0
v0
o5
v670
n2
n1
o41
o1
o0
v0
o5
v671
n2
n1
o41
o1
o0
v0
o5
v672
n2
n1
o41
o1
o0
v0
o5
v673
n2
n1
o41
o1
o0
v0
o5
v674
n2
n1
o41
o1
o0
v0
o5
v675
n2
n1
o41
o1
o0
v0
o5
v676
n2
n1
o41
o1
o0
v0
o5
v677
n2
n1
o41
o1
o0
v0
o5
v678
n2
n1
o41
o1
o0
v0
o5
v679
n2
n1
o41
o1
o0
v0
o5
v680
n2
n1
o41
o1
o0
v0
o5
v681
n2
n1
o41
o1
o0
v0
o5
v682
n2
n1
o41
o1
o0
v0
o5
v683
n2
n1
o41
o1
o0
v0
o5
v684
n2
n1
o41
o1
o0
v0
o5
v685
n2
n1
o41
o1
o0
v0
o5
v686
n2
n1
o41
o1
o0
v0
o5
v687
n2
n1
o41
o1
o0
v0
o5
v688
n2
n1
o41
o1
o0
v0
o5
v689
n2
n1
o41
o1
o0
v0
o5
v690
n2
n1
o41
o1
o0
v0
o5
v691
n2
n1
o41
o1
o0
v0
o5
v692
n2
n1
o41
o1
o0
v0
o5
v693
n2
n1
o41
o1
o0
v0
o5
v694
n2
n1
o41
o1
o0
v0
o5
v695
n2
n1
o41
o1
o0
v0
o5
v696
n2
n1
o41
o1
o0
v0
o5
v697
n2
n1
o41
o1
o0
v0
o5
v698
n2
n1
o41
o1
o0
v0
o5
v699
n2
n1
o41
o1
o0
v0
o5
v700
n2
n1
o41
o1
o0
v0
o5
v701
n2
n1
o41
o1
o0
v0
o5
v702
n2
n1
o41
o1
o0
v0
o5
v703
n2
n1
o41
o1
o0
v0
o5
v704
n2
n1
o41
o1
o0
v0
o5
v705
n2
n1
o41
o1
o0
v0
o5
v706
n2
n1
o41
o1
o0
v0
o5
v707
n2
n1
o41
o1
o0
v0
o5
v708
n2
n1
o41
o1
o0
v0
o5
v709
n2
n1
o41
o1
o0
v0
o5
v710
n2
n1
o41
o1
o0
v0
o5
v711
n2
n1
o41
o1
o0
v0
o5
v712
n2
n1
o41
o1
o0
v0
o5
v713
n2
n1
o41
o1
o0
v0
o5
v714
n2
n1
o41
o1
o0
v0
o5
v715
n2
n1
o41
o1
o0
v0
o5
v716
n2
n1
o41
o1
o0
v0
o5
v717
n2
n1
o41
o1
o0
v0
o5
v718
n2
n1
o41
o1
o0
v0
o5
v719
n2
n1
o41
o1
o0
v0
o5
v720
n2
n1
o41
o1
o0
v0
o5
v721
n2
n1
o41
o1
o0
v0
o5
v722
n2
n1
o41
o1
o0
v0
o5
v723
n2
n1
o41
o1
o0
v0
o5
v724
n2
n1
o41
o1
o0
v0
o5
v725
n2
n1
o41
o1
o0
v0
o5
v726
n2
n1
o41
o1
o0
v0
o5
v727
n2
n1
o41
o1
o0
v0
o5
v728
n2
n1
o41
o1
o0
v0
o5
v729
n2
n1
o41
o1
o0
v0
o5
v730
n2
n1
o41
o1
o0
v0
o5
v731
n2
n1
o41
o1
o0
v0
o5
v732
n2
n1
o41
o1
o0
v0
o5
v733
n2
n1
o41
o1
o0
v0
o5
v734
n2
n1
o41
o1
o0
v0
o5
v735
n2
n1
o41
o1
o0
v0
o5
v736
n2
n1
o41
o1
o0
v0
o5
v737
n2
n1
o41
o1
o0
v0
o5
v738
n2
n1
o41
o1
o0
v0
o5
v739
n2
n1
o41
o1
o0
v0
o5
v740
n2
n1
o41
o1
o0
v0
o5
v741
n2
n1
o41
o1
o0
v0
o5
v742
n2
n1
o41
o1
o0
v0
o5
v743
n2
n1
o41
o1
o0
v0
o5
v744
n2
n1
o41
o1
o0
v0
o5
v745
n2
n1
o41
o1
o0
v0
o5
v746
n2
n1
o41
o1
o0
v0
o5
v747
n2
n1
o41
o1
o0
v0
o5
v748
n2
n1
o41
o1
o0
v0
o5
v749
n2
n1
o41
o1
o0
v0
o5
v750
n2
n1
o41
o1
o0
v0
o5
v751
n2
n1
o41
o1
o0
v0
o5
v752
n2
n1
o41
o1
o0
v0
o5
v753
n2
n1
o41
o1
o0
v0
o5
v754
n2
n1
o41
o1
o0
v0
o5
v755
n2
n1
o41
o1
o0
v0
o5
v756
n2
n1
o41
o1
o0
v0
o5
v757
n2
n1
o41
o1
o0
v0
o5
v758
n2
n1
o41
o1
o0
v0
o5
v759
n2
n1
o41
o1
o0
v0
o5
v760
n2
n1
o41
o1
o0
v0
o5
v761
n2
n1
o41
o1
o0
v0
o5
v762
n2
n1
o41
o1
o0
v0
o5
v763
n2
n1
o41
o1
o0
v0
o5
v764
n2
n1
o41
o1
o0
v0
o5
v765
n2
n1
o41
o1
o0
v0
o5
v766
n2
n1
o41
o1
o0
v0
o5
v767
n2
n1
o41
o1
o0
v0
o5
v768
n2
n1
o41
o1
o0
v0
o5
v769
n2
n1
o41
o1
o0
v0
o5
v770
n2
n1
o41
o1
o0
v0
o5
v771
n2
n1
o41
o1
o0
v0
o5
v772
n2
n1
o41
o1
o0
v0
o5
v773
n2
n1
o41
o1
o0
v0
o5
v774
n2
n1
o41
o1
o0
v0
o5
v775
n2
n1
o41
o1
o0
v0
o5
v776
n2
n1
o41
o1
o0
v0
o5
v777
n2
n1
o41
o1
o0
v0
o5
v778
n2
n1
o41
o1
o0
v0
o5
v779
n2
n1
o41
o1
o0
v0
o5
v780
n2
n1
o41
o1
o0
v0
o5
v781
n2
n1
o41
o1
o0
v0
o5
v782
n2
n1
o41
o1
o0
v0
o5
v783
n2
n1
o41
o1
o0
v0
o5
v784
n2
n1
o41
o1
o0
v0
o5
v785
n2
n1
o41
o1
o0
v0
o5
v786
n2
n1
o41
o1
o0
v0
o5
v787
n2
n1
o41
o1
o0
v0
o5
v788
n2
n1
o41
o1
o0
v0
o5
v789
n2
n1
o41
o1
o0
v0
o5
v790
n2
n1
o41
o1
o0
v0
o5
v791
n2
n1
o41
o1
o0
v0
o5
v792
n2
n1
o41
o1
o0
v0
o5
v793
n2
n1
o41
o1
o0
v0
o5
v794
n2
n1
o41
o1
o0
v0
o5
v795
n2
n1
o41
o1
o0
v0
o5
v796
n2
n1
o41
o1
o0
v0
o5
v797
n2
n1
o41
o1
o0
v0
o5
v798
n2
n1
o41
o1
o0
v0
o5
v799
n2
n1
o41
o1
o0
v0
o5
v800
n2
n1
o41
o1
o0
v0
o5
v801
n2
n1
o41
o1
o0
v0
o5
v802
n2
n1
o41
o1
o0
v0
o5
v803
n2
n1
o41
o1
o0
v0
o5
v804
n2
n1
o41
o1
o0
v0
o5
v805
n2
n1
o41
o1
o0
v0
o5
v806
n2
n1
o41
o1
o0
v0
o5
v807
n2
n1
o41
o1
o0
v0
o5
v808
n2
n1
o41
o1
o0
v0
o5
v809
n2
n1
o41
o1
o0
v0
o5
v810
n2
n1
o41
o1
o0
v0
o5
v811
n2
n1
o41
o1
o0
v0
o5
v812
n2
n1
o41
o1
o0
v0
o5
v813
n2
n1
o41
o1
o0
v0
o5
v814
n2
n1
o41
o1
o0
v0
o5
v815
n2
n1
o41
o1
o0
v0
o5
v816
n2
n1
o41
o1
o0
v0
o5
v817
n2
n1
o41
o1
o0
v0
o5
v818
n2
n1
o41
o1
o0
v0
o5
v819
n2
n1
o41
o1
o0
v0
o5
v820
n2
n1
o41
o1
o0
v0
o5
v821
n2
n1
o41
o1
o0
v0
o5
v822
n2
n1
o41
o1
o0
v0
o5
v823
n2
n1
o41
o1
o0
v0
o5
v824
n2
n1
o41
o1
o0
v0
o5
v825
n2
n1
o41
o1
o0
v0
o5
v826
n2
n1
o41
o1
o0
v0
o5
v827
n2
n1
o41
o1
o0
v0
o5
v828
n2
n1
o41
o1
o0
v0
o5
v829
n2
n1
o41
o1
o0
v0
o5
v830
n2
n1
o41
o1
o0
v0
o5
v831
n2
n1
o41
o1
o0
v0
o5
v832
n2
n1
o41
o1
o0
v0
o5
v833
n2
n1
o41
o1
o0
v0
o5
v834
n2
n1
o41
o1
o0
v0
o5
v835
n2
n1
o41
o1
o0
v0
o5
v836
n2
n1
o41
o1
o0
v0
o5
v837
n2
n1
o41
o1
o0
v0
o5
v838
n2
n1
o41
o1
o0
v0
o5
v839
n2
n1
o41
o1
o0
v0
o5
v840
n2
n1
o41
o1
o0
v0
o5
v841
n2
n1
o41
o1
o0
v0
o5
v842
n2
n1
o41
o1
o0
v0
o5
v843
n2
n1
o41
o1
o0
v0
o5
v844
n2
n1
o41
o1
o0
v0
o5
v845
n2
n1
o41
o1
o0
v0
o5
v846
n2
n1
o41
o1
o0
v0
o5
v847
n2
n1
o41
o1
o0
v0
o5
v848
n2
n1
o41
o1
o0
v0
o5
v849
n2
n1
o41
o1
o0
v0
o5
v850
n2
n1
o41
o1
o0
v0
o5
v851
n2
n1
o41
o1
o0
v0
o5
v852
n2
n1
o41
o1
o0
v0
o5
v853
n2
n1
o41
o1
o0
v0
o5
v854
n2
n1
o41
o1
o0
v0
o5
v855
n2
n1
o41
o1
o0
v0
o5
v856
n2
n1
o41
o1
o0
v0
o5
v857
n2
n1
o41
o1
o0
v0
o5
v858
n2
n1
o41
o1
o0
v0
o5
v859
n2
n1
o41
o1
o0
v0
o5
v860
n2
n1
o41
o1
o0
v0
o5
v861
n2
n1
o41
o1
o0
v0
o5
v862
n2
n1
o41
o1
o0
v0
o5
v863
n2
n1
o41
o1
o0
v0
o5
v864
n2
n1
o41
o1
o0
v0
o5
v865
n2
n1
o41
o1
o0
v0
o5
v866
n2
n1
o41
o1
o0
v0
o5
v867
n2
n1
o41
o1
o0
v0
o5
v868
n2
n1
o41
o1
o0
v0
o5
v869
n2
n1
o41
o1
o0
v0
o5
v870
n2
n1
o41
o1
o0
v0
o5
v871
n2
n1
o41
o1
o0
v0
o5
v872
n2
n1
o41
o1
o0
v0
o5
v873
n2
n1
o41
o1
o0
v0
o5
v874
n2
n1
o41
o1
o0
v0
o5
v875
n2
n1
o41
o1
o0
v0
o5
v876
n2
n1
o41
o1
o0
v0
o5
v877
n2
n1
o41
o1
o0
v0
o5
v878
n2
n1
o41
o1
o0
v0
o5
v879
n2
n1
o41
o1
o0
v0
o5
v880
n2
n1
o41
o1
o0
v0
o5
v881
n2
n1
o41
o1
o0
v0
o5
v882
n2
n1
o41
o1
o0
v0
o5
v883
n2
n1
o41
o1
o0
v0
o5
v884
n2
n1
o41
o1
o0
v0
o5
v885
n2
n1
o41
o1
o0
v0
o5
v886
n2
n1
o41
o1
o0
v0
o5
v887
n2
n1
o41
o1
o0
v0
o5
v888
n2
n1
o41
o1
o0
v0
o5
v889
n2
n1
o41
o1
o0
v0
o5
v890
n2
n1
o41
o1
o0
v0
o5
v891
n2
n1
o41
o1
o0
v0
o5
v892
n2
n1
o41
o1
o0
v0
o5
v893
n2
n1
o41
o1
o0
v0
o5
v894
n2
n1
o41
o1
o0
v0
o5
v895
n2
n1
o41
o1
o0
v0
o5
v896
n2
n1
o41
o1
o0
v0
o5
v897
n2
n1
o41
o1
o0
v0
o5
v898
n2
n1
o41
o1
o0
v0
o5
v899
n2
n1
o41
o1
o0
v0
o5
v900
n2
n1
o41
o1
o0
v0
o5
v901
n2
n1
o41
o1
o0
v0
o5
v902
n2
n1
o41
o1
o0
v0
o5
v903
n2
n1
o41
o1
o0
v0
o5
v904
n2
n1
o41
o1
o0
v0
o5
v905
n2
n1
o41
o1
o0
v0
o5
v906
n2
n1
o41
o1
o0
v0
o5
v907
n2
n1
o41
o1
o0
v0
o5
v908
n2
n1
o41
o1
o0
v0
o5
v909
n2
n1
o41
o1
o0
v0
o5
v910
n2
n1
o41
o1
o0
v0
o5
v911
n2
n1
o41
o1
o0
v0
o5
v912
n2
n1
o41
o1
o0
v0
o5
v913
n2
n1
o41
o1
o0
v0
o5
v914
n2
n1
o41
o1
o0
v0
o5
v915
n2
n1
o41
o1
o0
v0
o5
v916
n2
n1
o41
o1
o0
v0
o5
v917
n2
n1
o41
o1
o0
v0
o5
v918
n2
n1
o41
o1
o0
v0
o5
v919
n2
n1
o41
o1
o0
v0
o5
v920
n2
n1
o41
o1
o0
v0
o5
v921
n2
n1
o41
o1
o0
v0
o5
v922
n2
n1
o41
o1
o0
v0
o5
v923
n2
n1
o41
o1
o0
v0
o5
v924
n2
n1
o41
o1
o0
v0
o5
v925
n2
n1
o41
o1
o0
v0
o5
v926
n2
n1
o41
o1
o0
v0
o5
v927
n2
n1
o41
o1
o0
v0
o5
v928
n2
n1
o41
o1
o0
v0
o5
v929
n2
n1
o41
o1
o0
v0
o5
v930
n2
n1
o41
o1
o0
v0
o5
v931
n2
n1
o41
o1
o0
v0
o5
v932
n2
n1
o41
o1
o0
v0
o5
v933
n2
n1
o41
o1
o0
v0
o5
v934
n2
n1
o41
o1
o0
v0
o5
v935
n2
n1
o41
o1
o0
v0
o5
v936
n2
n1
o41
o1
o0
v0
o5
v937
n2
n1
o41
o1
o0
v0
o5
v938
n2
n1
o41
o1
o0
v0
o5
v939
n2
n1
o41
o1
o0
v0
o5
v940
n2
n1
o41
o1
o0
v0
o5
v941
n2
n1
o41
o1
o0
v0
o5
v942
n2
n1
o41
o1
o0
v0
o5
v943
n2
n1
o41
o1
o0
v0
o5
v944
n2
n1
o41
o1
o0
v0
o5
v945
n2
n1
o41
o1
o0
v0
o5
v946
n2
n1
o41
o1
o0
v0
o5
v947
n2
n1
o41
o1
o0
v0
o5
v948
n2
n1
o41
o1
o0
v0
o5
v949
n2
n1
o41
o1
o0
v0
o5
v950
n2
n1
o41
o1
o0
v0
o5
v951
n2
n1
o41
o1
o0
v0
o5
v952
n2
n1
o41
o1
o0
v0
o5
v953
n2
n1
o41
o1
o0
v0
o5
v954
n2
n1
o41
o1
o0
v0
o5
v955
n2
n1
o41
o1
o0
v0
o5
v956
n2
n1
o41
o1
o0
v0
o5
v957
n2
n1
o41
o1
o0
v0
o5
v958
n2
n1
o41
o1
o0
v0
o5
v959
n2
n1
o41
o1
o0
v0
o5
v960
n2
n1
o41
o1
o0
v0
o5
v961
n2
n1
o41
o1
o0
v0
o5
v962
n2
n1
o41
o1
o0
v0
o5
v963
n2
n1
o41
o1
o0
v0
o5
v964
n2
n1
o41
o1
o0
v0
o5
v965
n2
n1
o41
o1
o0
v0
o5
v966
n2
n1
o41
o1
o0
v0
o5
v967
n2
n1
o41
o1
o0
v0
o5
v968
n2
n1
o41
o1
o0
v0
o5
v969
n2
n1
o41
o1
o0
v0
o5
v970
n2
n1
o41
o1
o0
v0
o5
v971
n2
n1
o41
o1
o0
v0
o5
v972
n2
n1
o41
o1
o0
v0
o5
v973
n2
n1
o41
o1
o0
v0
o5
v974
n2
n1
o41
o1
o0
v0
o5
v975
n2
n1
o41
o1
o0
v0
o5
v976
n2
n1
o41
o1
o0
v0
o5
v977
n2
n1
o41
o1
o0
v0
o5
v978
n2
n1
o41
o1
o0
v0
o5
v979
n2
n1
o41
o1
o0
v0
o5
v980
n2
n1
o41
o1
o0
v0
o5
v981
n2
n1
o41
o1
o0
v0
o5
v982
n2
n1
o41
o1
o0
v0
o5
v983
n2
n1
o41
o1
o0
v0
o5
v984
n2
n1
o41
o1
o0
v0
o5
v985
n2
n1
o41
o1
o0
v0
o5
v986
n2
n1
o41
o1
o0
v0
o5
v987
n2
n1
o41
o1
o0
v0
o5
v988
n2
n1
o41
o1
o0
v0
o5
v989
n2
n1
o41
o1
o0
v0
o5
v990
n2
n1
o41
o1
o0
v0
o5
v991
n2
n1
o41
o1
o0
v0
o5
v992
n2
n1
o41
o1
o0
v0
o5
v993
n2
n1
o41
o1
o0
v0
o5
v994
n2
n1
o41
o1
o0
v0
o5
v995
n2
n1
o41
o1
o0
v0
o5
v996
n2
n1
o41
o1
o0
v0
o5
v997
n2
n1
o41
o1
o0
v0
o5
v998
n2
n1
o2
n0.5
o41
o5
v999
n2
b
3
3
3
3
3
3
3
3
3
3
3
3
3
3
3
3
3
3
3
3
3
3
3
3
3
3
3
3
3
3
3
3
3
3
3
3
3
3
3
3
3
3
3
3
3
3
3
3
3
3
3
3
3
3
3
3
3
3
3
3
3
3
3
3
3
3
3
3
3
3
3
3
3
3
3
3
3
3
3
3
3
3
3
3
3
3
3
3
3
3
3
3
3
3
3
3
3
3
3
3
3
3
3
3
3
3
3
3
3
3
3
3
3
3
3
3
3
3
3
3
3
3
3
3
3
3
3
3
3
3
3
3
3
3
3
3
3
3
3
3
3
3
3
3
3
3
3
3
3
3
3
3
3
3
3
3
3
3
3
3
3
3
3
3
3
3
3
3
3
3
3
3
3
3
3
3
3
3
3
3
3
3
3
3
3
3
3
3
3
3
3
3
3
3
3
3
3
3
3
3
3
3
3
3
3
3
3
3
3
3
3
3
3
3
3
3
3
3
3
3
3
3
3
3
3
3
3
3
3
3
3
3
3
3
3
3
3
3
3
3
3
3
3
3
3
3
3
3
3
3
3
3
3
3
3
3
3
3
3
3
3
3
3
3
3
3
3
3
3
3
3
3
3
3
3
3
3
3
3
3
3
3
3
3
3
3
3
3
3
3
3
3
3
3
3
3
3
3
3
3
3
3
3
3
3
3
3
3
3
3
3
3
3
3
3
3
3
3
3
3
3
3
3
3
3
3
3
3
3
3
3
3
3
3
3
3
3
3
3
3
3
3
3
3
3
3
3
3
3
3
3
3
3
3
3
3
3
3
3
3
3
3
3
3
3
3
3
3
3
3
3
3
3
3
3
3
3
3
3
3
3
3
3
3
3
3
3
3
3
3
3
3
3
3
3
3
3
3
3
3
3
3
3
3
3
3
3
3
3
3
3
3
3
3
3
3
3
3
3
3
3
3
3
3
3
3
3
3
3
3
3
3
3
3
3
3
3
3
3
3
3
3
3
3
3
3
3
3
3
3
3
3
3
3
3
3
3
3
3
3
3
3
3
3
3
3
3
3
3
3
3
3
3
3
3
3
3
3
3
3
3
3
3
3
3
3
3
3
3
3
3
3
3
3
3
3
3
3
3
3
3
3
3
3
3
3
3
3
3
3
3
3
3
3
3
3
3
3
3
3
3
3
3
3
3
3
3
3
3
3
3
3
3
3
3
3
3
3
3
3
3
3
3
3
3
3
3
3
3
3
3
3
3
3
3
3
3
3
3
3
3
3
3
3
3
3
3
3
3
3
3
3
3
3
3
3
3
3
3
3
3
3
3
3
3
3
3
3
3
3
3
3
3
3
3
3
3
3
3
3
3
3
3
3
3
3
3
3
3
3
3
3
3
3
3
3
3
3
3
3
3
3
3
3
3
3
3
3
3
3
3
3
3
3
3
3
3
3
3
3
3
3
3
3
3
3
3
3
3
3
3
3
3
3
3
3
3
3
3
3
3
3
3
3
3
3
3
3
3
3
3
3
3
3
3
3
3
3
3
3
3
3
3
3
3
3
3
3
3
3
3
3
3
3
3
3
3
3
3
3
3
3
3
3
3
3
3
3
3
3
3
3
3
3
3
3
3
3
3
3
3
3
3
3
3
3
3
3
3
3
3
3
3
3
3
3
3
3
3
3
3
3
3
3
3
3
3
3
3
3
3
3
3
3
3
3
3
3
3
3
3
3
3
3
3
3
3
3
3
3
3
3
3
3
3
3
3
3
3
3
3
3
3
3
3
3
3
3
3
3
3
3
3
3
3
3
3
3
3
3
3
3
3
3
3
3
3
3
3
3
3
3
3
3
3
3
3
3
3
3
3
3
3
3
3
3
3
3
3
3
3
3
3
3
3
3
3
3
3
3
3
3
3
3
3
3
3
3
3
3
3
3
3
3
3
3
3
3
3
3
3
3
3
3
3
3
3
3
3
3
3
3
3
3
3
3
3
3
3
3
3
3
3
3
3
3
3
3
3
3
3
3
3
3
3
3
3
3
3
3
3
3
3
3
3
3
3
3
3
3
3
3
3
3
3
3
3
3
3
3
3
3
3
3
3
3
3
3
3
3
3
3
3
3
3
3
3
3
3
3
3
3
3
3
3
3
3
3
3
3
3
3
3
3
3
3
3
3
3
3
3
3
3
3
3
3
3
3
3
3
3
3
3
3
3
3
3
3
3
3
3
3
3
3
3
3
3
3
3
3
3
3
3
3
3
3
3
3
3
3
k999
0
0
0
0
0
0
0
0
0
0
0
0
0
0
0
0
0
0
0
0
0
0
0
0
0
0
0
0
0
0
0
0
0
0
0
0
0
0
0
0
0
0
0
0
0
0
0
0
0
0
0
0
0
0
0
0
0
0
0
0
0
0
0
0
0
0
0
0
0
0
0
0
0
0
0
0
0
0
0
0
0
0
0
0
0
0
0
0
0
0
0
0
0
0
0
0
0
0
0
0
0
0
0
0
0
0
0
0
0
0
0
0
0
0
0
0
0
0
0
0
0
0
0
0
0
0
0
0
0
0
0
0
0
0
0
0
0
0
0
0
0
0
0
0
0
0
0
0
0
0
0
0
0
0
0
0
0
0
0
0
0
0
0
0
0
0
0
0
0
0
0
0
0
0
0
0
0
0
0
0
0
0
0
0
0
0
0
0
0
0
0
0
0
0
0
0
0
0
0
0
0
0
0
0
0
0
0
0
0
0
0
0
0
0
0
0
0
0
0
0
0
0
0
0
0
0
0
0
0
0
0
0
0
0
0
0
0
0
0
0
0
0
0
0
0
0
0
0
0
0
0
0
0
0
0
0
0
0
0
0
0
0
0
0
0
0
0
0
0
0
0
0
0
0
0
0
0
0
0
0
0
0
0
0
0
0
0
0
0
0
0
0
0
0
0
0
0
0
0
0
0
0
0
0
0
0
0
0
0
0
0
0
0
0
0
0
0
0
0
0
0
0
0
0
0
0
0
0
0
0
0
0
0
0
0
0
0
0
0
0
0
0
0
0
0
0
0
0
0
0
0
0
0
0
0
0
0
0
0
0
0
0
0
0
0
0
0
0
0
0
0
0
0
0
0
0
0
0
0
0
0
0
0
0
0
0
0
0
0
0
0
0
0
0
0
0
0
0
0
0
0
0
0
0
0
0
0
0
0
0
0
0
0
0
0
0
0
0
0
0
0
0
0
0
0
0
0
0
0
0
0
0
0
0
0
0
0
0
0
0
0
0
0
0
0
0
0
0
0
0
0
0
0
0
0
0
0
0
0
0
0
0
0
0
0
0
0
0
0
0
0
0
0
0
0
0
0
0
0
0
0
0
0
0
0
0
0
0
0
0
0
0
0
0
0
0
0
0
0
0
0
0
0
0
0
0
0
0
0
0
0
0
0
0
0
0
0
0
0
0
0
0
0
0
0
0
0
0
0
0
0
0
0
0
0
0
0
0
0
0
0
0
0
0
0
0
0
0
0
0
0
0
0
0
0
0
0
0
0
0
0
0
0
0
0
0
0
0
0
0
0
0
0
0
0
0
0
0
0
0
0
0
0
0
0
0
0
0
0
0
0
0
0
0
0
0
0
0
0
0
0
0
0
0
0
0
0
0
0
0
0
0
0
0
0
0
0
0
0
0
0
0
0
0
0
0
0
0
0
0
0
0
0
0
0
0
0
0
0
0
0
0
0
0
0
0
0
0
0
0
0
0
0
0
0
0
0
0
0
0
0
0
0
0
0
0
0
0
0
0
0
0
0
0
0
0
0
0
0
0
0
0
0
0
0
0
0
0
0
0
0
0
0
0
0
0
0
0
0
0
0
0
0
0
0
0
0
0
0
0
0
0
0
0
0
0
0
0
0
0
0
0
0
0
0
0
0
0
0
0
0
0
0
0
0
0
0
0
0
0
0
0
0
0
0
0
0
0
0
0
0
0
0
0
0
0
0
0
0
0
0
0
0
0
0
0
0
0
0
0
0
0
0
0
0
0
0
0
0
0
0
0
0
0
0
0
0
0
0
0
0
0
0
0
0
0
0
0
0
0
0
0
0
0
0
0
0
0
0
0
0
0
0
0
0
0
0
0
0
0
0
0
0
0
0
0
0
0
0
0
0
0
0
0
0
0
0
0
0
0
0
0
0
0
0
0
0
0
0
0
0
0
0
0
0
0
0
0
0
0
0
0
0
0
0
0
0
0
0
0
0
0
0
0
0
0
0
0
0
0
0
0
0
0
0
0
0
0
0
0
0
0
0
0
0
0
0
0
0
0
0
0
0
0
0
0
0
0
0
0
0
0
0
0
0
0
0
0
0
0
0
0
0
0
0
0
0
0
0
0
0
0
0
0
0
0
0
0
0
0
0
0
0
0
0
0
0
0
0
0
0
0
0
0
0
0
0
0
0
0
0
0
0
0
0
0
0
0
0
0
0
0
0
0
0
0
0
0
0
0
0
0
0
0
0
0
0
0
0
0
0
0
0
0
0
0
0
0
0
G0 1000
0 0
1 0
2 0
3 0
4 0
5 0
6 0
7 0
8 0
9 0
10 0
11 0
12 0
13 0
14 0
15 0
16 0
17 0
18 0
19 0
20 0
21 0
22 0
23 0
24 0
25 0
26 0
27 0
28 0
29 0
30 0
31 0
32 0
33 0
34 0
35 0
36 0
37 0
38 0
39 0
40 0
41 0
42 0
43 0
44 0
45 0
46 0
47 0
48 0
49 0
50 0
51 0
52 0
53 0
54 0
55 0
56 0
57 0
58 0
59 0
60 0
61 0
62 0
63 0
64 0
65 0
66 0
67 0
68 0
69 0
70 0
71 0
72 0
73 0
74 0
75 0
76 0
77 0
78 0
79 0
80 0
81 0
82 0
83 0
84 0
85 0
86 0
87 0
88 0
89 0
90 0
91 0
92 0
93 0
94 0
95 0
96 0
97 0
98 0
99 0
100 0
101 0
102 0
103 0
104 0
105 0
106 0
107 0
108 0
109 0
110 0
111 0
112 0
113 0
114 0
115 0
116 0
117 0
118 0
119 0
120 0
121 0
122 0
123 0
124 0
125 0
126 0
127 0
128 0
129 0
130 0
131 0
132 0
133 0
134 0
135 0
136 0
137 0
138 0
139 0
140 0
141 0
142 0
143 0
144 0
145 0
146 0
147 0
148 0
149 0
150 0
151 0
152 0
153 0
154 0
155 0
156 0
157 0
158 0
159 0
160 0
161 0
162 0
163 0
164 0
165 0
166 0
167 0
168 0
169 0
170 0
171 0
172 0
173 0
174 0
175 0
176 0
177 0
178 0
179 0
180 0
181 0
182 0
183 0
184 0
185 0
186 0
187 0
188 0
189 0
190 0
191 0
192 0
193 0
194 0
195 0
196 0
197 0
198 0
199 0
200 0
201 0
202 0
203 0
204 0
205 0
206 0
207 0
208 0
209 0
210 0
211 0
212 0
213 0
214 0
215 0
216 0
217 0
218 0
219 0
220 0
221 0
222 0
223 0
224 0
225 0
226 0
227 0
228 0
229 0
230 0
231 0
232 0
233 0
234 0
235 0
236 0
237 0
238 0
239 0
240 0
241 0
242 0
243 0
244 0
245 0
246 0
247 0
248 0
249 0
250 0
251 0
252 0
253 0
254 0
255 0
256 0
257 0
258 0
259 0
260 0
261 0
262 0
263 0
264 0
265 0
266 0
267 0
268 0
269 0
270 0
271 0
272 0
273 0
274 0
275 0
276 0
277 0
278 0
279 0
280 0
281 0
282 0
283 0
284 0
285 0
286 0
287 0
288 0
289 0
290 0
291 0
292 0
293 0
294 0
295 0
296 0
297 0
298 0
299 0
300 0
301 0
302 0
303 0
304 0
305 0
306 0
307 0
308 0
309 0
310 0
311 0
312 0
313 0
314 0
315 0
316 0
317 0
318 0
319 0
320 0
321 0
322 0
323 0
324 0
325 0
326 0
327 0
328 0
329 0
330 0
331 0
332 0
333 0
334 0
335 0
336 0
337 0
338 0
339 0
340 0
341 0
342 0
343 0
344 0
345 0
346 0
347 0
348 0
349 0
350 0
351 0
352 0
353 0
354 0
355 0
356 0
357 0
358 0
359 0
360 0
361 0
362 0
363 0
364 0
365 0
366 0
367 0
368 0
369 0
370 0
371 0
372 0
373 0
374 0
375 0
376 0
377 0
378 0
379 0
380 0
381 0
382 0
383 0
384 0
385 0
386 0
387 0
388 0
389 0
390 0
391 0
392 0
393 0
394 0
395 0
396 0
397 0
398 0
399 0
400 0
401 0
402 0
403 0
404 0
405 0
406 0
407 0
408 0
409 0
410 0
411 0
412 0
413 0
414 0
415 0
416 0
417 0
418 0
419 0
420 0
421 0
422 0
423 0
424 0
425 0
426 0
427 0
428 0
429 0
430 0
431 0
432 0
433 0
434 0
435 0
436 0
437 0
438 0
439 0
440 0
441 0
442 0
443 0
444 0
445 0
446 0
447 0
448 0
449 0
450 0
451 0
452 0
453 0
454 0
455 0
456 0
457 0
458 0
459 0
460 0
461 0
462 0
463 0
464 0
465 0
466 0
467 0
468 0
469 0
470 0
471 0
472 0
473 0
474 0
475 0
476 0
477 0
478 0
479 0
480 0
481 0
482 0
483 0
484 0
485 0
486 0
487 0
488 0
489 0
490 0
491 0
492 0
493 0
494 0
495 0
496 0
497 0
498 0
499 0
500 0
501 0
502 0
503 0
504 0
505 0
506 0
507 0
508 0
509 0
510 0
511 0
512 0
513 0
514 0
515 0
516 0
517 0
518 0
519 0
520 0
521 0
522 0
523 0
524 0
525 0
526 0
527 0
528 0
529 0
530 0
531 0
532 0
533 0
534 0
535 0
536 0
537 0
538 0
539 0
540 0
541 0
542 0
543 0
544 0
545 0
546 0
547 0
548 0
549 0
550 0
551 0
552 0
553 0
554 0
555 0
556 0
557 0
558 0
559 0
560 0
561 0
562 0
563 0
564 0
565 0
566 0
567 0
568 0
569 0
570 0
571 0
572 0
573 0
574 0
575 0
576 0
577 0
578 0
579 0
580 0
581 0
582 0
583 0
584 0
585 0
586 0
587 0
588 0
589 0
590 0
591 0
592 0
593 0
594 0
595 0
596 0
597 0
598 0
599 0
600 0
601 0
602 0
603 0
604 0
605 0
606 0
607 0
608 0
609 0
610 0
611 0
612 0
613 0
614 0
615 0
616 0
617 0
618 0
619 0
620 0
621 0
622 0
623 0
624 0
625 0
626 0
627 0
628 0
629 0
630 0
631 0
632 0
633 0
634 0
635 0
636 0
637 0
638 0
639 0
640 0
641 0
642 0
643 0
644 0
645 0
646 0
647 0
648 0
649 0
650 0
651 0
652 0
653 0
654 0
655 0
656 0
657 0
658 0
659 0
660 0
661 0
662 0
663 0
664 0
665 0
666 0
667 0
668 0
669 0
670 0
671 0
672 0
673 0
674 0
675 0
676 0
677 0
678 0
679 0
680 0
681 0
682 0
683 0
684 0
685 0
686 0
687 0
688 0
689 0
690 0
691 0
692 0
693 0
694 0
695 0
696 0
697 0
698 0
699 0
700 0
701 0
702 0
703 0
704 0
705 0
706 0
707 0
708 0
709 0
710 0
711 0
712 0
713 0
714 0
715 0
716 0
717 0
718 0
719 0
720 0
721 0
722 0
723 0
724 0
725 0
726 0
727 0
728 0
729 0
730 0
731 0
732 0
733 0
734 0
735 0
736 0
737 0
738 0
739 0
740 0
741 0
742 0
743 0
744 0
745 0
746 0
747 0
748 0
749 0
750 0
751 0
752 0
753 0
754 0
755 0
756 0
757 0
758 0
759 0
760 0
761 0
762 0
763 0
764 0
765 0
766 0
767 0
768 0
769 0
770 0
771 0
772 0
773 0
774 0
775 0
776 0
777 0
778 0
779 0
780 0
781 0
782 0
783 0
784 0
785 0
786 0
787 0
788 0
789 0
790 0
791 0
792 0
793 0
794 0
795 0
796 0
797 0
798 0
799 0
800 0
801 0
802 0
803 0
804 0
805 0
806 0
807 0
808 0
809 0
810 0
811 0
812 0
813 0
814 0
815 0
816 0
817 0
818 0
819 0
820 0
821 0
822 0
823 0
824 0
825 0
826 0
827 0
828 0
829 0
830 0
831 0
832 0
833 0
834 0
835 0
836 0
837 0
838 0
839 0
840 0
841 0
842 0
843 0
844 0
845 0
846 0
847 0
848 0
849 0
850 0
851 0
852 0
853 0
854 0
855 0
856 0
857 0
858 0
859 0
860 0
861 0
862 0
863 0
864 0
865 0
866 0
867 0
868 0
869 0
870 0
871 0
872 0
873 0
874 0
875 0
876 0
877 0
878 0
879 0
880 0
881 0
882 0
883 0
884 0
885 0
886 0
887 0
888 0
889 0
890 0
891 0
892 0
893 0
894 0
895 0
896 0
897 0
898 0
899 0
900 0
901 0
902 0
903 0
904 0
905 0
906 0
907 0
908 0
909 0
910 0
911 0
912 0
913 0
914 0
915 0
916 0
917 0
918 0
919 0
920 0
921 0
922 0
923 0
924 0
925 0
926 0
927 0
928 0
929 0
930 0
931 0
932 0
933 0
934 0
935 0
936 0
937 0
938 0
939 0
940 0
941 0
942 0
943 0
944 0
945 0
946 0
947 0
948 0
949 0
950 0
951 0
952 0
953 0
954 0
955 0
956 0
957 0
958 0
959 0
960 0
961 0
962 0
963 0
964 0
965 0
966 0
967 0
968 0
969 0
970 0
971 0
972 0
973 0
974 0
975 0
976 0
977 0
978 0
979 0
980 0
981 0
982 0
983 0
984 0
985 0
986 0
987 0
988 0
989 0
990 0
991 0
992 0
993 0
994 0
995 0
996 0
997 0
998 0
999 0
